(set-info :smt-lib-version 2.6)
(set-logic QF_UFLRA)
(set-info :source |
MathSat group

|)
(set-info :category "random")
(set-info :status unsat)
(declare-fun x0 () Real)
(declare-fun x1 () Real)
(declare-fun x2 () Real)
(declare-fun x3 () Real)
(declare-fun x4 () Real)
(declare-fun x5 () Real)
(declare-fun x6 () Real)
(declare-fun x7 () Real)
(declare-fun x8 () Real)
(declare-fun x9 () Real)
(declare-fun x10 () Real)
(declare-fun x11 () Real)
(declare-fun x12 () Real)
(declare-fun x13 () Real)
(declare-fun x14 () Real)
(declare-fun x15 () Real)
(declare-fun x16 () Real)
(declare-fun x17 () Real)
(declare-fun x18 () Real)
(declare-fun x19 () Real)
(declare-fun x20 () Real)
(declare-fun x21 () Real)
(declare-fun x22 () Real)
(declare-fun x23 () Real)
(declare-fun x24 () Real)
(declare-fun x25 () Real)
(declare-fun x26 () Real)
(declare-fun x27 () Real)
(declare-fun x28 () Real)
(declare-fun x29 () Real)
(declare-fun x30 () Real)
(declare-fun x31 () Real)
(declare-fun x32 () Real)
(declare-fun x33 () Real)
(declare-fun x34 () Real)
(declare-fun x35 () Real)
(declare-fun x36 () Real)
(declare-fun x37 () Real)
(declare-fun x38 () Real)
(declare-fun x39 () Real)
(declare-fun f0_1 (Real) Real)
(declare-fun f0_2 (Real Real) Real)
(declare-fun f0_3 (Real Real Real) Real)
(declare-fun f0_4 (Real Real Real Real) Real)
(declare-fun P0 () Bool)
(declare-fun P1 () Bool)
(declare-fun P2 () Bool)
(declare-fun P3 () Bool)
(declare-fun P4 () Bool)
(declare-fun P5 () Bool)
(declare-fun P6 () Bool)
(declare-fun P7 () Bool)
(declare-fun P8 () Bool)
(declare-fun P9 () Bool)
(declare-fun P10 () Bool)
(declare-fun P11 () Bool)
(declare-fun P12 () Bool)
(declare-fun P13 () Bool)
(declare-fun P14 () Bool)
(declare-fun P15 () Bool)
(declare-fun P16 () Bool)
(declare-fun P17 () Bool)
(declare-fun P18 () Bool)
(declare-fun P19 () Bool)
(declare-fun P20 () Bool)
(declare-fun P21 () Bool)
(declare-fun P22 () Bool)
(declare-fun P23 () Bool)
(declare-fun P24 () Bool)
(declare-fun P25 () Bool)
(declare-fun P26 () Bool)
(declare-fun P27 () Bool)
(declare-fun P28 () Bool)
(declare-fun P29 () Bool)
(declare-fun P30 () Bool)
(declare-fun P31 () Bool)
(declare-fun P32 () Bool)
(declare-fun P33 () Bool)
(declare-fun P34 () Bool)
(declare-fun P35 () Bool)
(declare-fun P36 () Bool)
(declare-fun P37 () Bool)
(declare-fun P38 () Bool)
(declare-fun P39 () Bool)
(assert (let ((?v_148 (< (+ (- (* 25 x1) (* 32 x13)) (* 57 x7)) 21)) (?v_163 (< (+ (- (* 2 x5) (* 33 x6)) (* 7 x32)) 0)) (?v_10 (<= (- (+ (* 31 x20) (* 10 x37)) (* 32 x3)) 13)) (?v_68 (<= (+ (- (* 47 x25) (* 9 x3)) (* 57 x4)) 3)) (?v_11 (= (- (- (* 30 x23) (* 43 x28)) (* 28 x9)) 30)) (?v_19 (<= (+ (- (* 26 x22) (* 44 x9)) (* 18 x10)) 35)) (?v_120 (<= (- (- (* 54 x2) (* 55 x28)) (* 32 x19)) 0)) (?v_64 (<= (+ (- (* 3 x15) (* 52 x9)) (* 24 x19)) 43)) (?v_164 (< (- (- (* 39 x20) (* 9 x11)) (* 28 x25)) 36)) (?v_113 (<= (- (+ (* 11 x2) (* 37 x29)) (* 13 x24)) 7)) (?v_100 (<= (- (- (* 21 x2) (* 38 x4)) (* 21 x6)) 5)) (?v_60 (distinct (- (- (* 20 x38) (* 24 x38)) (* 6 x16)) 26)) (?v_50 (f0_1 x1))) (let ((?v_98 (distinct x25 ?v_50)) (?v_14 (f0_1 x34))) (let ((?v_13 (= x32 ?v_14)) (?v_16 (= (f0_2 x11 x22) (f0_2 x21 x38))) (?v_40 (f0_1 x16))) (let ((?v_133 (= ?v_40 x21)) (?v_143 (= x36 x5)) (?v_41 (= (f0_2 x20 x28) x8)) (?v_189 (distinct (f0_2 x7 x21) (f0_2 x26 x31))) (?v_89 (distinct x25 x10)) (?v_144 (= x22 x25)) (?v_4 (= x30 (f0_2 x8 x9))) (?v_73 (distinct x31 (f0_2 x22 x6))) (?v_31 (distinct x30 (f0_2 x25 x34))) (?v_106 (f0_1 x24))) (let ((?v_111 (distinct ?v_106 (f0_2 x19 x22))) (?v_2 (f0_1 x39))) (let ((?v_3 (distinct x21 ?v_2)) (?v_24 (f0_1 x18))) (let ((?v_109 (distinct (f0_2 x8 x4) ?v_24)) (?v_1 (f0_1 x19))) (let ((?v_39 (distinct x1 ?v_1)) (?v_43 (distinct (f0_2 x8 x29) (f0_2 x35 x14))) (?v_55 (distinct x35 (f0_2 x27 x12))) (?v_162 (= (f0_2 x27 x19) x15)) (?v_28 (distinct x2 x28)) (?v_140 (= (f0_1 x15) (f0_1 x9))) (?v_95 (= (f0_2 x31 x19) (f0_2 x28 x9))) (?v_156 (= (f0_2 x21 x35) ?v_106)) (?v_186 (distinct (f0_2 x31 x34) x9)) (?v_126 (distinct (f0_2 x9 x18) (f0_1 x8))) (?v_35 (f0_1 x30))) (let ((?v_36 (= (f0_2 x36 x3) ?v_35)) (?v_18 (distinct x23 x27)) (?v_147 (distinct (f0_1 x27) x30)) (?v_72 (= x1 ?v_50)) (?v_157 (distinct ?v_1 x16)) (?v_134 (distinct (f0_1 x29) (f0_2 x21 x5))) (?v_192 (distinct x25 (f0_2 x11 x29))) (?v_81 (distinct (f0_2 x6 x22) x19)) (?v_172 (distinct x39 x1)) (?v_127 (distinct ?v_14 (f0_2 x29 x22))) (?v_0 (distinct ?v_24 x13)) (?v_15 (= x32 (f0_2 x13 x29))) (?v_58 (distinct ?v_40 ?v_35)) (?v_107 (distinct x19 ?v_2)) (?v_86 (= (f0_2 x9 x28) x13)) (?v_65 (not ?v_156)) (?v_6 (not P38)) (?v_112 (not P8)) (?v_129 (not P9))) (let ((?v_27 (not ?v_81)) (?v_139 (not ?v_89)) (?v_121 (not ?v_0)) (?v_59 (not ?v_157)) (?v_12 (not ?v_4)) (?v_123 (not P34)) (?v_84 (not P28)) (?v_32 (not P37)) (?v_83 (not ?v_163)) (?v_97 (not P31)) (?v_179 (not ?v_186)) (?v_22 (not P4)) (?v_46 (not ?v_10)) (?v_76 (not ?v_41)) (?v_49 (not ?v_18)) (?v_165 (not ?v_28)) (?v_197 (not P30)) (?v_38 (not P29)) (?v_208 (not P21)) (?v_44 (not P14)) (?v_30 (not ?v_120)) (?v_20 (not ?v_127)) (?v_118 (not ?v_143)) (?v_131 (not ?v_95)) (?v_34 (not ?v_15)) (?v_74 (not P2)) (?v_170 (not ?v_189)) (?v_194 (not P33)) (?v_184 (not P32)) (?v_33 (not P6)) (?v_67 (not ?v_19)) (?v_25 (not P18)) (?v_77 (not ?v_98)) (?v_151 (not ?v_109)) (?v_188 (not P1)) (?v_92 (not ?v_55)) (?v_114 (not ?v_31)) (?v_103 (not ?v_36)) (?v_101 (not P19)) (?v_52 (not ?v_39)) (?v_53 (not ?v_133)) (?v_146 (not ?v_164)) (?v_177 (not ?v_64)) (?v_167 (not ?v_16)) (?v_108 (not ?v_73)) (?v_137 (not ?v_72)) (?v_79 (not ?v_144)) (?v_94 (not P11)) (?v_119 (not P39)) (?v_104 (not ?v_162)) (?v_180 (not ?v_60)) (?v_125 (not ?v_68)) (?v_82 (not P25)) (?v_141 (not ?v_147)) (?v_142 (not ?v_100)) (?v_99 (not P22)) (?v_138 (not P0)) (?v_96 (not ?v_148)) (?v_90 (not ?v_126)) (?v_173 (not ?v_86)) (?v_102 (not P15)) (?v_130 (not P23)) (?v_161 (not P17)) (?v_166 (not P10)) (?v_195 (not ?v_172)) (?v_153 (not ?v_11)) (?v_181 (not ?v_111)) (?v_145 (not ?v_3)) (?v_168 (not P12)) (?v_128 (not ?v_43)) (?v_185 (not P16)) (?v_132 (not P36)) (?v_169 (not P5)) (?v_150 (not P24)) (?v_152 (not ?v_134)) (?v_155 (not ?v_140)) (?v_158 (not ?v_107)) (?v_202 (not ?v_58)) (?v_187 (not P26)) (?v_196 (not P35)) (?v_174 (not P27)) (?v_176 (not ?v_192)) (?v_199 (not ?v_13)) (?v_201 (not ?v_113)) (?v_206 (not P13))) (let ((?v_205 (or ?v_44 P17)) (?v_207 (not P20)) (?v_91 (distinct (+ (- 0 x6) (* 6 x19)) 32))) (let ((?v_26 (not ?v_91)) (?v_171 (<= (+ (* 34 x37) (* 10 x15) (* 37 x38)) 21)) (?v_57 (= (+ (* 19 x37) (* 22 x23) (* 12 x27)) 6))) (let ((?v_160 (not ?v_57)) (?v_198 (not ?v_171)) (?v_178 (< (- (* (- 22) x15) (* 47 x6)) (- 22)))) (let ((?v_48 (not ?v_178)) (?v_85 (<= (+ (- (* 37 x21) (* 10 x20)) (* 40 x11)) (- 36)))) (let ((?v_7 (not ?v_85)) (?v_21 (distinct (+ (- (* (- 48) x16) 0) (* 2 x16)) 12)) (?v_122 (<= (+ (- (* (- 29) x21) (* 53 x38)) (* 46 x21)) 53))) (let ((?v_8 (not ?v_122)) (?v_9 (<= (- (* (- 47) x25) (* 42 x16)) (- 42)))) (let ((?v_78 (not ?v_9)) (?v_61 (< (- (+ (* 56 x12) (* 50 x6)) (* 32 x15)) (- 56))) (?v_5 (= (- (- (* (- 28) x18) (* 29 x31)) (* 43 x39)) 0))) (let ((?v_71 (not ?v_5)) (?v_87 (<= (- (- (* (- 53) x22) (* 37 x31)) (* 51 x38)) 1))) (let ((?v_80 (not ?v_87)) (?v_17 (< (+ (* 19 x8) (* 16 x21) (* 9 x4)) (- 36))) (?v_63 (<= (- (+ (* (- 49) x19) (* 19 x6)) (* 20 x15)) 10))) (let ((?v_47 (not ?v_63)) (?v_29 (<= (+ (- (* (- 39) x16) (* 25 x16)) (* 15 x28)) (- 19))) (?v_37 (= (- (+ (* (- 31) x39) (* 25 x30)) (* 9 x25)) 38)) (?v_23 (not ?v_17)) (?v_66 (< (+ (- (* 33 x13) (* 52 x25)) (* 27 x9)) (- 49))) (?v_42 (<= (+ (* (- 19) x24) (* 53 x21) (* 29 x28)) 18)) (?v_54 (< (- (+ (* (- 57) x23) (* 57 x10)) (* 45 x16)) (- 31)))) (let ((?v_183 (not ?v_54)) (?v_75 (< (+ (- (* (- 40) x11) (* 7 x39)) (* 41 x36)) (- 15))) (?v_45 (<= (+ (* 16 x33) (* 24 x21) (* 18 x19)) (- 7)))) (let ((?v_70 (not ?v_45)) (?v_51 (distinct (+ (- (* (- 32) x25) (* 42 x26)) (* 24 x3)) (- 16))) (?v_88 (not ?v_29)) (?v_135 (not ?v_21)) (?v_190 (<= (+ (* (- 43) x4) (* 24 x25) (* 24 x12)) 46))) (let ((?v_116 (not ?v_190)) (?v_56 (not ?v_42)) (?v_62 (not ?v_37)) (?v_136 (<= (- (+ (* (- 46) x15) (* 25 x32)) (* 43 x11)) (- 21)))) (let ((?v_124 (not ?v_136)) (?v_115 (< (- (- (* (- 27) x10) (* 12 x16)) (* 31 x8)) 0))) (let ((?v_69 (not ?v_115)) (?v_154 (not ?v_61)) (?v_204 (or ?v_63 ?v_64)) (?v_117 (< (+ (* (- 25) x5) (* 6 x12) (* 31 x37)) 48))) (let ((?v_200 (not ?v_117)) (?v_191 (<= (+ (* 41 x32) (* 23 x11) (* 37 x35)) (- 5)))) (let ((?v_105 (not ?v_191)) (?v_110 (= (+ (* (- 31) x1) (* 4 x34) (* 24 x17)) 36))) (let ((?v_93 (not ?v_110)) (?v_182 (not ?v_51)) (?v_159 (not ?v_75)) (?v_149 (<= (+ (- (* (- 24) x34) (* 27 x10)) (* 23 x39)) (- 43)))) (let ((?v_175 (not ?v_149)) (?v_193 (not ?v_66)) (?v_203 (or ?v_185 ?v_61))) (and (and (and (and (and (and (and (and (and (and (and (and (and (and (and (and (and (and (and (and (and (and (and (and (and (and (and (and (and (and (and (and (and (and (and (and (and (and (and (and (and (and (and (and (and (and (and (and (and (and (and (and (and (and (and (and (and (and (and (and (and (and (and (and (and (and (and (and (and (and (and (and (and (and (and (and (and (and (and (and (and (and (and (and (and (and (and (and (and (and (and (and (and (and (and (and (and (and (and (and (and (and (and (and (and (and (and (and (and (and (and (and (and (and (and (and (and (and (and (and (and (and (and (and (and (and (and (and (and (and (and (and (and (and (and (and (and (and (and (and (and (and (and (and (and (and (and (and (and (and (and (and (and (and (and (and (and (and (and (and (and (and (and (and (and (and (and (and (and (and (and (and (and (and (and (and (and (and (and (and (and (and (and (and (and (and (and (and (and (and (and (and (and (and (and (and (and (and (and (and (and (and (and (and (and (and (and (and (and (and (and (and (and (and (and (and (and (and (and (and (and (and (and (and (and (and (and (and (and (and (and (and (and (and (and (and (and (and (and (and (and (and (and (and (and (and (and (and (and (and (and (and (and (and (and (and (and (and (and (and (and (and (and (and (and (and (and (and (and (and (and (and (and (and (and (and (and (and (and (and (and (and (and (and (and (and (and (and (and (and (and (and (and (and (and (and (and (and (and (and (and (and (and (and (and (and (and (and (and (and (and (and (and (and (and (and (and (and (and (and (and (and (and (and (and (and (and (and (and (and (and (and (and (and (and (and (and (and (and (and (and (and (and (and (and (and (and (and (and (and (and (and (and (and (and (and (and (and (and (and (and (and (and (and (and (and (and (and (and (and (and (and (and (and (and (and (and (and (and (and (and (and (and (and (and (and (and (and (and (and (and (and (and (and (and (and (and (and (and (and (and (and (and (and (and (and (and (and (and (and (and (and (and (and (and (and (and (and (and (and (and (and (and (and (and (and (and (and (and (and (and (and (and (and (and (and (and (and (and (and (and (and (and (and (and (and (and (and (and (and (and (and (and (and (and (and (and (and (and (and (and (and (and (and (and (and (and (and (and (and (and (and (and (and (and (and (and (and (and (or (or P9 ?v_48) P11) (or (or P1 ?v_7) ?v_65)) (or (or ?v_6 ?v_112) ?v_129)) (or (or P13 ?v_27) P1)) (or (or ?v_139 ?v_121) ?v_13)) (or (or ?v_0 ?v_107) P11)) (or (or ?v_59 ?v_21) ?v_26)) (or (or ?v_12 ?v_39) P21)) (or (or ?v_16 ?v_8) ?v_3)) (or (or P16 ?v_123) ?v_84)) (or (or ?v_3 ?v_78) ?v_61)) (or (or ?v_71 ?v_58) ?v_4)) (or (or ?v_11 ?v_5) P16)) (or (or ?v_32 ?v_10) ?v_83)) (or (or ?v_6 P19) ?v_97)) (or (or ?v_7 ?v_179) ?v_8)) (or (or P8 P18) ?v_22)) (or (or ?v_9 ?v_46) ?v_80)) (or (or P36 ?v_171) ?v_11)) (or (or ?v_76 P24) ?v_10)) (or (or ?v_15 ?v_49) ?v_17)) (or (or ?v_165 ?v_47) ?v_197)) (or (or ?v_12 ?v_38) ?v_208)) (or (or ?v_44 ?v_13) ?v_30)) (or (or ?v_20 ?v_11) ?v_118)) (or (or ?v_43 ?v_31) P2)) (or (or ?v_131 ?v_29) ?v_7)) (or (or ?v_34 P28) ?v_74)) (or (or P38 ?v_16) ?v_170)) (or (or ?v_37 ?v_23) ?v_194)) (or (or P35 ?v_18) ?v_10)) (or (or ?v_184 ?v_19) P13)) (or (or ?v_33 ?v_67) ?v_20)) (or (or ?v_66 ?v_25) P30)) (or (or ?v_77 ?v_21) ?v_22)) (or (or ?v_23 ?v_151) P25)) (or (or ?v_188 ?v_25) ?v_26)) (or (or ?v_42 ?v_21) ?v_27)) (or (or ?v_28 ?v_15) ?v_183)) (or (or ?v_92 ?v_29) ?v_30)) (or (or P6 ?v_114) ?v_32)) (or (or ?v_33 P3) ?v_34)) (or (or ?v_75 P21) ?v_103)) (or (or ?v_70 ?v_36) ?v_101)) (or (or P1 P3) ?v_37)) (or (or ?v_34 ?v_51) ?v_3)) (or (or ?v_38 P23) ?v_60)) (or (or ?v_52 P33) ?v_88)) (or (or ?v_135 P23) ?v_53)) (or (or P11 P38) ?v_41)) (or (or P13 ?v_146) ?v_9)) (or (or ?v_134 P5) ?v_42)) (or (or ?v_116 ?v_177) P31)) (or (or ?v_56 ?v_43) ?v_167)) (or (or ?v_44 ?v_140) ?v_113)) (or (or P2 ?v_3) ?v_6)) (or (or ?v_45 ?v_57) ?v_46)) (or (or ?v_47 ?v_108) ?v_48)) (or (or ?v_49 ?v_62) ?v_137)) (or (or ?v_79 ?v_94) ?v_30)) (or (or P26 ?v_51) ?v_52)) (or (or ?v_124 ?v_36) ?v_53)) (or (or ?v_54 ?v_119) ?v_55)) (or (or ?v_56 ?v_104) ?v_38)) (or (or ?v_57 ?v_58) P33)) (or (or P34 ?v_5) ?v_59)) (or (or ?v_180 ?v_69) ?v_27)) (or (or ?v_16 ?v_54) ?v_154)) (or (or ?v_62 ?v_43) ?v_125)) (or ?v_204 ?v_65)) (or (or ?v_66 ?v_67) ?v_41)) (or (or ?v_30 ?v_56) ?v_13)) (or (or P18 P28) P5)) (or (or P14 ?v_68) ?v_69)) (or (or P30 ?v_200) ?v_82)) (or (or ?v_70 ?v_86) ?v_141)) (or (or ?v_42 ?v_67) ?v_71)) (or (or ?v_72 ?v_73) ?v_15)) (or (or ?v_16 ?v_74) ?v_62)) (or (or P32 ?v_66) ?v_34)) (or (or ?v_28 ?v_142) P14)) (or (or ?v_19 ?v_67) ?v_60)) (or (or ?v_75 ?v_76) P37)) (or (or ?v_60 ?v_75) P35)) (or (or P3 ?v_99) ?v_77)) (or (or ?v_78 ?v_79) ?v_36)) (or (or ?v_68 ?v_80) ?v_138)) (or (or ?v_81 P12) ?v_82)) (or (or P4 ?v_19) ?v_51)) (or (or ?v_83 ?v_84) ?v_96)) (or (or ?v_90 ?v_30) ?v_85)) (or (or ?v_173 P17) ?v_10)) (or (or ?v_87 ?v_88) ?v_105)) (or (or ?v_80 ?v_29) ?v_89)) (or (or ?v_16 ?v_6) ?v_90)) (or (or ?v_91 ?v_92) P32)) (or (or P30 ?v_73) ?v_93)) (or (or ?v_82 ?v_33) P27)) (or (or ?v_102 ?v_93) ?v_37)) (or (or P39 ?v_29) ?v_33)) (or (or ?v_30 ?v_130) ?v_3)) (or (or ?v_62 ?v_94) ?v_95)) (or (or ?v_59 P23) ?v_3)) (or (or ?v_161 ?v_166) ?v_42)) (or (or ?v_4 ?v_96) ?v_195)) (or (or P14 P10) ?v_97)) (or (or ?v_98 ?v_99) P8)) (or (or P8 ?v_31) P39)) (or (or ?v_100 P1) ?v_6)) (or (or (not P3) ?v_20) ?v_37)) (or (or ?v_101 ?v_102) ?v_103)) (or (or ?v_104 ?v_105) ?v_153)) (or (or P24 P30) P7)) (or (or P1 ?v_43) ?v_111)) (or (or ?v_85 P18) ?v_44)) (or (or ?v_107 ?v_58) ?v_108)) (or (or ?v_57 ?v_109) ?v_90)) (or (or ?v_110 ?v_181) ?v_51)) (or (or P38 ?v_5) ?v_112)) (or (or ?v_33 ?v_39) P11)) (or (or ?v_113 ?v_114) ?v_115)) (or (or ?v_44 P33) P3)) (or (or ?v_145 ?v_116) P20)) (or (or ?v_113 ?v_59) ?v_96)) (or (or P30 ?v_97) ?v_117)) (or (or ?v_118 ?v_82) ?v_119)) (or (or ?v_120 ?v_92) ?v_59)) (or (or ?v_182 ?v_121) ?v_122)) (or (or ?v_159 ?v_168) ?v_112)) (or (or ?v_123 ?v_124) ?v_101)) (or (or ?v_125 P2) ?v_128)) (or (or ?v_105 ?v_49) P4)) (or (or ?v_126 ?v_26) ?v_127)) (or (or ?v_128 P35) ?v_185)) (or (or P27 ?v_129) ?v_54)) (or (or P4 ?v_65) ?v_84)) (or (or ?v_90 ?v_31) ?v_130)) (or (or ?v_132 ?v_131) ?v_42)) (or (or ?v_38 ?v_81) ?v_130)) (or (or ?v_20 ?v_129) ?v_132)) (or (or P18 ?v_73) ?v_16)) (or (or ?v_64 ?v_169) P14)) (or (or ?v_46 ?v_149) ?v_102)) (or (or ?v_150 ?v_67) ?v_133)) (or (or ?v_88 ?v_152) P8)) (or (or P24 P33) ?v_135)) (or (or P14 ?v_136) ?v_39)) (or (or ?v_76 ?v_26) ?v_57)) (or (or ?v_137 ?v_56) P11)) (or (or P36 ?v_52) ?v_138)) (or (or P15 ?v_139) ?v_155)) (or (or ?v_76 ?v_141) P14)) (or (or ?v_54 ?v_135) P38)) (or (or ?v_75 ?v_12) P22)) (or (or ?v_64 ?v_20) ?v_142)) (or (or ?v_158 ?v_160) P25)) (or (or ?v_202 ?v_143) ?v_187)) (or (or ?v_144 ?v_145) ?v_146)) (or (or ?v_84 P31) P11)) (or (or ?v_107 ?v_27) ?v_147)) (or (or ?v_148 ?v_175) ?v_123)) (or (or ?v_150 ?v_75) ?v_19)) (or (or P15 ?v_151) ?v_133)) (or (or ?v_152 ?v_110) ?v_150)) (or (or ?v_43 ?v_66) ?v_127)) (or (or ?v_153 ?v_52) P4)) (or (or ?v_12 ?v_154) ?v_155)) (or (or ?v_57 ?v_156) ?v_157)) (or (or ?v_49 ?v_156) P2)) (or (or ?v_158 ?v_159) ?v_152)) (or (or ?v_160 ?v_28) ?v_82)) (or (or ?v_71 ?v_161) ?v_162)) (or (or ?v_16 P16) ?v_132)) (or (or ?v_75 ?v_59) ?v_163)) (or (or ?v_153 ?v_164) ?v_161)) (or (or ?v_86 ?v_119) P24)) (or (or ?v_165 P16) ?v_156)) (or (or ?v_146 ?v_39) ?v_31)) (or (or ?v_130 ?v_166) ?v_139)) (or (or ?v_126 ?v_67) ?v_166)) (or (or ?v_162 ?v_3) ?v_5)) (or (or ?v_120 ?v_54) P38)) (or (or ?v_121 ?v_167) ?v_154)) (or (or ?v_123 ?v_29) ?v_20)) (or (or P13 ?v_168) ?v_196)) (or (or P15 ?v_133) ?v_27)) (or (or ?v_49 ?v_22) ?v_72)) (or (or ?v_71 ?v_131) ?v_126)) (or (or P6 ?v_93) ?v_34)) (or (or ?v_3 ?v_34) ?v_17)) (or (or P8 ?v_127) P15)) (or (or ?v_116 P39) ?v_8)) (or (or ?v_67 ?v_79) ?v_89)) (or (or ?v_151 ?v_58) P13)) (or (or ?v_74 ?v_16) ?v_49)) (or (or ?v_122 ?v_163) ?v_165)) (or (or ?v_95 ?v_169) ?v_29)) (or (or ?v_30 ?v_89) ?v_59)) (or (or ?v_127 ?v_8) P19)) (or (or ?v_134 ?v_170) ?v_174)) (or (or ?v_71 ?v_169) P4)) (or (or ?v_65 ?v_87) ?v_143)) (or (or ?v_69 ?v_88) ?v_60)) (or (or ?v_55 ?v_171) ?v_49)) (or (or ?v_20 ?v_23) ?v_134)) (or (or ?v_55 ?v_15) ?v_36)) (or (or ?v_111 ?v_67) ?v_101)) (or (or ?v_167 ?v_16) ?v_168)) (or (or P3 ?v_139) ?v_101)) (or (or ?v_102 ?v_12) ?v_20)) (or (or ?v_7 P33) ?v_148)) (or (or P15 ?v_30) ?v_61)) (or (or ?v_167 ?v_161) P28)) (or (or ?v_38 ?v_129) P23)) (or (or ?v_158 ?v_75) ?v_172)) (or (or ?v_58 ?v_166) ?v_164)) (or (or ?v_113 ?v_83) P39)) (or (or P13 ?v_173) ?v_153)) (or (or ?v_95 ?v_176) ?v_30)) (or (or P9 ?v_174) P35)) (or (or ?v_172 ?v_7) P19)) (or (or ?v_75 ?v_174) P8)) (or (or ?v_18 ?v_4) ?v_175)) (or (or ?v_154 ?v_170) ?v_36)) (or (or ?v_136 ?v_88) ?v_150)) (or (or ?v_78 ?v_98) ?v_69)) (or (or ?v_169 ?v_176) ?v_122)) (or (or ?v_16 ?v_103) ?v_23)) (or (or P33 ?v_6) ?v_63)) (or (or ?v_45 ?v_123) ?v_23)) (or (or ?v_117 ?v_82) ?v_41)) (or (or ?v_83 ?v_161) ?v_136)) (or (or ?v_3 ?v_120) ?v_177)) (or (or ?v_89 ?v_4) ?v_149)) (or (or ?v_116 ?v_19) P6)) (or (or P14 ?v_95) ?v_158)) (or (or ?v_73 ?v_34) ?v_134)) (or (or ?v_15 ?v_75) P4)) (or (or ?v_94 ?v_166) P25)) (or (or ?v_91 P14) ?v_173)) (or (or ?v_133 ?v_84) ?v_178)) (or (or ?v_99 ?v_26) P18)) (or (or ?v_159 P22) ?v_96)) (or (or ?v_31 ?v_179) ?v_16)) (or (or ?v_176 ?v_78) P32)) (or (or ?v_127 ?v_171) P32)) (or (or ?v_142 ?v_180) ?v_181)) (or (or ?v_158 ?v_125) ?v_16)) (or (or ?v_153 ?v_98) ?v_120)) (or (or ?v_148 ?v_78) ?v_173)) (or (or P32 ?v_182) ?v_115)) (or (or ?v_63 ?v_42) ?v_183)) (or (or P33 ?v_130) ?v_163)) (or (or ?v_161 ?v_41) ?v_184)) (or (or P5 ?v_12) ?v_95)) (or (or ?v_136 ?v_149) ?v_52)) (or (or ?v_161 P33) ?v_185)) (or (or ?v_29 ?v_144) ?v_163)) (or (or ?v_185 ?v_186) ?v_71)) (or (or ?v_11 ?v_199) ?v_167)) (or (or ?v_122 ?v_70) ?v_103)) (or (or ?v_135 ?v_28) ?v_95)) (or (or ?v_150 ?v_187) P27)) (or (or ?v_86 P9) ?v_56)) (or (or ?v_119 ?v_55) P34)) (or (or P11 ?v_61) ?v_0)) (or (or ?v_110 ?v_67) P27)) (or (or ?v_68 ?v_49) P4)) (or (or ?v_95 ?v_47) ?v_93)) (or (or ?v_31 ?v_25) ?v_47)) (or (or ?v_181 ?v_98) ?v_26)) (or (or P11 ?v_79) ?v_193)) (or (or P5 ?v_131) ?v_164)) (or (or ?v_131 ?v_129) ?v_143)) (or (or P10 ?v_120) ?v_53)) (or (or P14 ?v_23) ?v_57)) (or (or ?v_137 ?v_94) ?v_75)) (or (or ?v_95 ?v_152) ?v_81)) (or (or ?v_186 ?v_161) ?v_154)) (or (or ?v_53 ?v_4) ?v_5)) (or (or ?v_23 ?v_20) ?v_164)) (or (or ?v_164 ?v_154) ?v_68)) (or (or ?v_181 ?v_179) ?v_173)) (or (or P2 ?v_44) P28)) (or (or ?v_157 ?v_94) ?v_84)) (or (or ?v_198 ?v_99) ?v_91)) (or (or ?v_68 ?v_115) ?v_82)) (or (or P19 ?v_153) P5)) (or (or P17 ?v_164) ?v_188)) (or (or ?v_144 ?v_13) ?v_105)) (or (or ?v_64 ?v_134) ?v_61)) (or (or ?v_19 ?v_73) P5)) (or (or ?v_33 ?v_12) ?v_28)) (or (or ?v_23 ?v_161) ?v_135)) (or (or ?v_110 ?v_201) ?v_115)) (or (or ?v_34 P1) ?v_135)) (or (or ?v_104 P20) ?v_26)) (or (or ?v_61 ?v_137) ?v_121)) (or ?v_203 ?v_25)) (or (or ?v_76 ?v_46) ?v_4)) (or (or ?v_70 ?v_124) ?v_189)) (or (or ?v_130 ?v_134) ?v_43)) (or (or ?v_21 ?v_130) ?v_32)) (or (or ?v_93 ?v_22) ?v_29)) (or (or ?v_139 ?v_6) ?v_9)) (or (or ?v_190 ?v_41) ?v_99)) (or (or ?v_94 ?v_69) ?v_66)) (or (or ?v_133 ?v_99) P29)) (or (or ?v_64 ?v_143) ?v_153)) (or (or ?v_31 ?v_34) ?v_150)) (or (or ?v_168 ?v_134) ?v_191)) (or (or P21 ?v_192) ?v_41)) (or (or ?v_31 ?v_160) ?v_138)) (or (or ?v_182 P31) P29)) (or (or ?v_90 ?v_15) P26)) (or (or ?v_118 ?v_206) ?v_83)) (or (or ?v_81 ?v_101) ?v_25)) (or (or ?v_185 ?v_8) P26)) (or (or ?v_76 ?v_178) ?v_161)) (or (or ?v_120 ?v_117) ?v_160)) (or (or ?v_21 ?v_36) ?v_177)) (or (or ?v_141 ?v_34) ?v_157)) (or (or ?v_190 P18) ?v_118)) (or (or ?v_100 P21) ?v_16)) (or (or ?v_25 P29) ?v_151)) (or (or ?v_183 ?v_3) ?v_8)) (or (or ?v_26 ?v_178) ?v_184)) (or (or ?v_176 P8) ?v_34)) (or (or ?v_152 P22) ?v_0)) (or (or ?v_134 P30) ?v_78)) (or (or ?v_47 ?v_56) ?v_136)) (or (or ?v_45 ?v_145) ?v_193)) (or (or P14 ?v_33) ?v_162)) (or (or ?v_13 ?v_78) ?v_132)) (or (or ?v_20 ?v_194) ?v_58)) (or (or ?v_13 ?v_194) P18)) (or (or ?v_144 ?v_104) ?v_157)) (or (or ?v_139 ?v_30) ?v_64)) (or (or ?v_49 ?v_48) ?v_76)) (or (or ?v_111 P26) ?v_7)) (or (or ?v_189 ?v_109) P28)) (or (or ?v_154 P29) ?v_84)) (or (or ?v_168 ?v_105) ?v_67)) (or (or P20 ?v_155) ?v_37)) (or (or ?v_158 ?v_53) ?v_5)) (or (or ?v_175 P6) P8)) (or (or P33 ?v_133) ?v_89)) (or (or P9 ?v_109) ?v_90)) (or (or ?v_147 ?v_91) P1)) (or (or ?v_56 P7) ?v_145)) (or (or ?v_56 ?v_101) ?v_99)) (or (or ?v_53 ?v_26) ?v_151)) (or (or ?v_136 P22) P24)) (or (or ?v_178 ?v_161) ?v_137)) (or (or ?v_75 ?v_195) ?v_25)) (or (or ?v_3 ?v_7) ?v_42)) (or (or ?v_17 ?v_67) ?v_172)) (or ?v_205 ?v_45)) (or (or ?v_107 ?v_28) ?v_196)) (or (or ?v_195 ?v_80) ?v_31)) (or (or ?v_63 ?v_142) ?v_186)) (or (or ?v_151 ?v_183) ?v_190)) (or (or ?v_10 ?v_196) P25)) (or (or ?v_197 ?v_29) ?v_164)) (or (or ?v_63 ?v_72) ?v_181)) (or (or ?v_173 ?v_158) ?v_127)) (or (or ?v_36 ?v_121) ?v_76)) (or (or ?v_126 ?v_171) ?v_88)) (or (or P19 ?v_198) ?v_130)) (or (or P28 ?v_185) ?v_199)) (or (or ?v_158 ?v_27) ?v_189)) (or (or ?v_142 ?v_112) P13)) (or (or ?v_189 ?v_63) ?v_197)) (or (or ?v_136 P23) ?v_163)) (or (or ?v_19 ?v_61) ?v_74)) (or (or ?v_22 ?v_78) ?v_143)) (or (or ?v_5 ?v_22) ?v_9)) (or (or ?v_74 ?v_12) P12)) (or (or ?v_112 ?v_165) ?v_207)) (or (or P22 P6) ?v_200)) (or (or ?v_88 P23) ?v_200)) (or (or ?v_154 ?v_127) P19)) (or (or ?v_67 ?v_201) ?v_12)) (or (or ?v_33 ?v_8) ?v_176)) (or (or ?v_41 ?v_189) ?v_117)) (or (or P0 P33) ?v_49)) (or (or ?v_55 ?v_143) ?v_139)) (or (or ?v_84 ?v_20) ?v_192)) (or (or ?v_160 ?v_161) P10)) (or (or ?v_78 ?v_55) P9)) (or (or P37 ?v_87) ?v_23)) (or (or ?v_47 P28) ?v_169)) (or (or ?v_184 ?v_85) ?v_181)) (or (or P9 ?v_51) ?v_89)) (or (or ?v_72 ?v_202) ?v_32)) (or (or ?v_129 ?v_86) ?v_139)) (or (or ?v_177 ?v_73) ?v_74)) (or (or ?v_108 ?v_85) P8)) (or (or ?v_174 ?v_26) ?v_3)) (or (or P31 ?v_7) ?v_60)) (or (or ?v_103 ?v_185) ?v_87)) (or (or ?v_3 ?v_158) ?v_15)) (or (or P17 P31) ?v_145)) (or (or ?v_200 ?v_93) ?v_29)) (or (or ?v_69 ?v_71) ?v_0)) (or (or ?v_158 P34) ?v_154)) (or (or ?v_110 ?v_171) ?v_128)) (or (or ?v_61 P13) ?v_54)) (or (or P13 ?v_69) P27)) (or (or P7 ?v_98) ?v_137)) (or (or ?v_133 ?v_147) ?v_68)) (or (or P2 ?v_148) ?v_109)) (or (or ?v_192 ?v_56) ?v_156)) (or (or ?v_195 P16) ?v_8)) (or (or ?v_22 ?v_18) ?v_160)) (or (or P18 ?v_202) ?v_78)) (or (or P39 ?v_101) ?v_84)) (or (or ?v_198 ?v_64) ?v_194)) (or ?v_203 ?v_198)) (or (or ?v_202 ?v_88) ?v_112)) (or (or ?v_120 ?v_174) (not P7))) (or (or ?v_62 ?v_150) P2)) (or (or P18 ?v_84) ?v_139)) (or (or ?v_39 ?v_111) P9)) (or (or ?v_188 P37) ?v_199)) (or ?v_204 ?v_44)) (or (or ?v_146 P34) ?v_6)) (or (or P17 ?v_161) P37)) (or (or ?v_152 ?v_92) P6)) (or (or ?v_179 ?v_98) ?v_32)) (or ?v_205 ?v_86)) (or (or P30 ?v_206) P24)) (or (or ?v_97 ?v_175) ?v_196)) (or (or ?v_19 ?v_44) ?v_183)) (or (or ?v_55 ?v_200) ?v_143)) (or (or P25 P28) ?v_77)) (or (or P38 P29) ?v_132)) (or (or ?v_125 P33) ?v_122)) (or (or ?v_124 ?v_57) ?v_9)) (or (or ?v_71 ?v_130) ?v_42)) (or (or ?v_151 ?v_155) ?v_178)) (or (or ?v_57 ?v_79) ?v_104)) (or (or P14 ?v_74) ?v_92)) (or (or ?v_171 ?v_192) P32)) (or (or ?v_138 ?v_121) ?v_171)) (or (or ?v_101 ?v_127) ?v_189)) (or (or ?v_34 ?v_5) ?v_124)) (or (or P22 ?v_41) ?v_54)) (or (or ?v_155 ?v_207) P25)) (or (or ?v_168 P37) ?v_44)) (or (or ?v_186 P9) ?v_92)) (or (or ?v_171 ?v_146) P14)) (or (or ?v_187 P14) ?v_195)) (or (or ?v_79 ?v_9) ?v_86)) (or (or ?v_151 ?v_111) ?v_7)) (or (or ?v_98 P38) ?v_4)) (or (or P3 ?v_23) ?v_141)) (or (or P0 ?v_175) ?v_120)) (or (or ?v_208 ?v_78) ?v_150)) (or (or ?v_121 ?v_157) ?v_63)) (or (or ?v_136 ?v_78) ?v_181)) (or (or ?v_64 ?v_172) P35)) (or (or ?v_126 P3) ?v_131)) (or (or ?v_197 ?v_102) ?v_103)) (or (or P11 ?v_43) ?v_76)) (or (or ?v_208 ?v_132) ?v_75)) (or (or ?v_36 ?v_184) P19)) (or (or ?v_9 ?v_193) ?v_101)) (or (or P29 P26) ?v_80)) (or (or ?v_116 ?v_89) ?v_138)) (or (or ?v_52 ?v_143) ?v_103)) (or (or ?v_186 P11) ?v_133)) (or (or ?v_28 ?v_200) ?v_111)) (or (or ?v_65 ?v_69) ?v_7)) (or (or ?v_142 ?v_39) ?v_20)) (or (or ?v_101 ?v_10) ?v_206)) (or (or ?v_172 ?v_108) ?v_54)) (or (or ?v_43 ?v_143) ?v_109)) (or (or ?v_65 ?v_54) ?v_133)) (or (or P38 ?v_6) ?v_44))))))))))))))))))))))))))))))))
(check-sat)
(exit)
